NAME : morphed21-5-12
COMMENT : Generated using the function morphInstances from the R-package netgen (Bossek,2015) - Number of clusters: 5 Alpha: 0.5
TYPE : TSP
DIMENSION : 21
EDGE_WEIGHT_TYPE : EUC_2D
NODE_COORD_SECTION
1 32.6809455116 72.5192867649
2 81.8494086821 17.2077202244
3 92.176377431 76.3272692387
4 27.9044798334 16.2571910088
5 15.9775510793 23.6583330578
6 17.0380335656 51.9763869927
7 19.2004026081 19.9581013464
8 72.2198812644 39.7125223825
9 18.4519934166 61.8158009988
10 4.0251373273 20.010329111
11 60.6576395373 86.7779048604
12 83.0282924847 85.2644228074
13 47.6994385876 76.2551339484
14 46.7519795844 63.7990741875
15 48.3095639336 92.4245139664
16 49.4196498325 67.7757058146
17 62.5356623008 80.7615624376
18 61.5010896096 33.6705151769
19 71.2527680772 34.838994156
20 26.3610739069 56.5566169471
21 28.6811551679 53.717408675
EOF
